c nombre: 11
c densidad: 0.1
p edges 45 106
e 1 5
e 1 7
e 1 21
e 2 4
e 2 10
e 2 23
e 2 39
e 3 8
e 3 10
e 3 13
e 3 22
e 3 25
e 3 28
e 3 42
e 4 11
e 4 25
e 4 29
e 4 44
e 5 6
e 5 14
e 5 15
e 5 31
e 5 39
e 6 16
e 6 29
e 6 39
e 6 40
e 7 12
e 7 14
e 7 19
e 7 24
e 7 30
e 7 31
e 8 13
e 8 27
e 8 33
e 9 16
e 9 30
e 9 34
e 10 16
e 10 31
e 10 42
e 11 16
e 11 25
e 11 28
e 11 37
e 11 41
e 12 24
e 12 28
e 12 30
e 12 31
e 12 44
e 13 14
e 13 22
e 13 29
e 13 35
e 13 36
e 14 39
e 14 40
e 15 29
e 15 30
e 15 45
e 16 17
e 16 27
e 16 33
e 16 45
e 17 20
e 17 29
e 17 34
e 17 45
e 18 21
e 18 31
e 18 41
e 19 36
e 20 30
e 21 25
e 21 32
e 22 43
e 22 44
e 22 45
e 24 38
e 24 39
e 24 40
e 25 33
e 26 28
e 26 29
e 26 31
e 26 39
e 27 30
e 27 33
e 27 40
e 28 32
e 28 33
e 28 41
e 28 43
e 29 30
e 29 36
e 31 37
e 31 43
e 32 38
e 33 41
e 34 45
e 35 45
e 38 39
e 39 44
e 41 45
